(declare-const term_to_project_onto0 Real)
(declare-const term_to_project_onto Real)
(assert (exists ((|i'?1| Int) (|j'?2| Int) (j?3 Int) (x?4 Int) (i?5 Int))
         (and (<= (- j?3) 0) (<= (+ (- x?4) 1) 0) (<= (- i?5) 0)
                (= (+ (- x?4) 100) 0) (= (+ (* 2 i?5) (- j?3)) 0)
                (<= (+ i?5 (- x?4) 1) 0) (= (+ |i'?1| (- i?5) -1) 0)
                (= (+ |j'?2| (- j?3) -2) 0)
                (= term_to_project_onto0 (+ |j'?2| (- j?3)))
                (= term_to_project_onto (+ |i'?1| (- i?5))))))
(check-sat)
